# Current iteration 2045: This is a restart file 

# units:
real
# objective function defined:
# The format is:
# 'matching type', 'sub_folder name',"weight of current objective functions", "cores for running sampling","cores for evaluating objective functions"
# So,the corresponding python data type is: "string","string", "float","integer","integer"
# Example:
force mW_300K_1bar_500 1 2 2 bf 5000 w 0 1 0
# shell command to launch sampling in each folder :
# Python subprocess module launch these commands in non-blocking manner in each desired folder:
# sampling input file names will be subsistuted as: in.force, in.rdf, in.isobar ...
# Default sampling package is LAMMPS
# output and restart frequency 

5 5

# This is the guess parameters: 

# stillinger_weber6.389 2.1925 1.9 29.15 1.1 -0.343333333333 7.049556277 0.6322245584 4.1 0.2 0.0

# This is the current best parameters: 

stillinger_weber 6.189020435260077 2.3925007233023527 1.799999567588645 23.149947947883152 1.2000002434220578 -0.3333333987776287 0.602224970292558 3.999987370481675 5.458334997804022e-06

# fit (1) and fix (0) parameters: 

1.0 1.0 1.0 1.0 1.0 1.0 0.0 1.0 1.0 1.0 0.0

# constraints (index lower-bound upper-bound ... ):

10 0 5

# set termination criterion: max number of iteration, tolerance for parameters, tolerance for objective 

25000  1.0e-14 1.0e-14

# create (Perturb) or use existing vertices (Restart): 

# Nelder-Mead Nelder-Mead perturb random 0.2

# 

Nelder-Mead Restart 

4.5798980280112066e-10 4.5800091797563735e-10 4.580056230571489e-10 4.580069746233725e-10 4.580088191665374e-10 4.580090637392096e-10 4.5801458864122994e-10 4.580158686007892e-10 4.5802383095402285e-10 4.5803096156769586e-10

6.189020435260077 2.3925007233023527 1.799999567588645 23.149947947883152 1.2000002434220578 -0.3333333987776287 0.602224970292558 3.999987370481675 5.458334997804022e-06 

6.188994995913945 2.392498200214178 1.8000012616288694 23.149972111121066 1.2000000876738912 -0.3333333184098915 0.6022262005952308 4.000000603655428 3.275747116699085e-07 

6.189023769464278 2.3925008361158735 1.7999994954305396 23.149937380674555 1.2000001638617435 -0.33333339802188067 0.6022248310473204 3.9999852340169415 5.244682640753555e-06 

6.189031494506811 2.3924990104194563 1.8000007620910243 23.149883203807267 1.2000005609948403 -0.33333334718244073 0.6022276271434388 3.9999783093147534 1.0207691645541972e-05 

6.189029408277364 2.3924998506186106 1.8000001841323678 23.149905906274597 1.2000003927567753 -0.3333332717845869 0.6022265908914591 3.999979864224779 8.637552599628696e-06 

6.189009929560811 2.392498549928754 1.800000982914275 23.149937498367866 1.2000001815965955 -0.333333416774105 0.6022266671154892 3.9999929078152037 4.1255734246711644e-06 

6.189019185314664 2.392499298719586 1.80000052236891 23.14993969836512 1.2000004727648776 -0.3333333846891281 0.6022264815345091 3.999986658897165 6.262542240627453e-06 

6.189011525186035 2.3924983914823086 1.8000010569809002 23.149925796056845 1.2000000900227268 -0.33333333948868515 0.6022271252453293 3.999988544057094 4.133958911214636e-06 

6.1890165367668395 2.392499115601017 1.8000006526054617 23.14993798569953 1.2000003584111147 -0.3333332640617968 0.6022263788521085 3.9999887247733557 5.439474861684779e-06 

6.189017781178198 2.3924975405023794 1.8000016627555868 23.149902296615252 1.2000004520408836 -0.3333333260976141 0.60222866829633 3.999985878908147 7.688883137234772e-06 

