# LAMMPS input script
boundary p p p
units       real
atom_style  full
atom_modify map array sort 0 0
read_data   mW.lmp 

include force_field_parameters 

# ----- Variables -----
variable seed equal 78185
variable T equal 300.0000000000 
variable P equal 0.986923 

# ----- Initialize -----
neighbor 2.0 nsq
neigh_modify delay 0 every 1 check yes
timestep 5 # 5 fs   # Fix timestep here

# ----- Log file output -----
thermo       1000
thermo_style    custom  time temp press pe ke lx ly lz density
thermo_modify line multi norm yes flush yes format float %.6f

# ----- Quick run to relax the structure, cooling from 300 K to final temperature T %
velocity  all create 300 ${seed} 
fix 1 all npt temp ${T} ${T} 100 iso ${P} ${P} 1000 
run 100000 # 0.5 ns
reset_timestep 0
unfix 1  # Remove the fix (important!)

# ---- Custom dump ----
# Easier to analyze than LAMMP's log file
variable        engtot equal etotal
variable        utotal equal pe
variable        cellx equal lx
variable        kintemp equal temp
variable        virpress equal press
variable        massdensity equal density

# DCD trajectory (every 10 ps)
dump            1 all dcd 80 traj.dcd

# ----- Temperature/Pressure Controls -----
fix 1 all npt temp ${T} ${T} 100 iso ${P} ${P} 1000 
 
run 200000 # production  1 ns 

write_data data.final
