# output frequency: current best parameters/obj, restart simplex  

2 2 

# guess parameters of Himmelblau function  

#Himmelblau -0.270845 -0.923039 
Himmelblau -0.5 1.0 

# fit (1) and fix (0) parameters: 

1 1 

# constraints (index lower upper)  ... ): 

None

# set termination criterion: max number of iteration, tolerance for parameters,tolerance for objective 

4000 1e-10 1e-10 

# create (Perturb) or use existing vertices (Restart): 

Nelder-Mead perturb random 1.0 

