# Current iteration 1635: This is a restart file 

# units:
real
# objective function defined:
# format is:
# 'matching type', 'sub_folder name',"weight of current objective functions", "cores for running sampling","cores for evaluating objective functions"
# So,the corresponding python data type is: "string","string", "float","integer","integer"
# Example:
force mW_300K_1bar_500 1 2 2 bf 5000 w 0 1
# shell command to launch sampling in each folder :
# Python subprocess module launch these commands in non-blocking manner in each desired folder:
# sampling input file names will be subsistuted as: in.force, in.rdf, in.isobar ...
# Default sampling package is LAMMPS
# output and restart frequency 

5 5

# This is the guess parameters: 

# stillinger_weber stillinger_weber6.589 2.0925 1.87 29.15 1.02 -0.303333333333 7.049556277 0.6822245584 3.2 0.4 0.0

# This is the current best parameters: 

stillinger_weber stillinger_weber 6.189122215120906 2.3924914810474434 1.8000059390115155 23.14946471495234 1.2000024050431652 -0.333333405450898 0.6022428723619052 3.999909604900041 4.546761188989516e-05

# fit (1) and fix (0) parameters: 

1.0 1.0 1.0 1.0 1.0 1.0 0.0 1.0 1.0 1.0 0.0

# constraints ( index lower-bound upper-bound ... ):

 10 0 5

#set termination criterion: max number of iteration, tolerance for parameters,tolerance for objective 

25000  1.0e-14 1.0e-14

# create (Perturb) or use existing vertices (Restart): 

# Nelder-Mead Nelder-Mead perturb

# ['0.4', '0.4', '-0.4', '0.4', '0.4', '-0.4', '-0.4', '-0.4', '-0.4']

Nelder-Mead Restart 

4.5695402025379946e-10 4.569573509158819e-10 4.569590320360677e-10 4.5696684013924723e-10 4.569695394397567e-10 4.569744946603191e-10 4.5697537481207297e-10 4.569811516613241e-10 4.569855997577902e-10 4.569873888740319e-10

6.189122215120906 2.3924914810474434 1.8000059390115155 23.14946471495234 1.2000024050431652 -0.333333405450898 0.6022428723619052 3.999909604900041 4.546761188989516e-05

6.189113399559951 2.3924904754341343 1.80000665008677 23.149461733683314 1.2000023364068928 -0.33333335890045307 0.6022434499629162 3.9999148111183422 4.429272999492657e-05

6.189110140801483 2.3924910410550964 1.8000062474436336 23.14947416040324 1.200002092556948 -0.33333329203361173 0.6022425418490474 3.9999156960549374 4.221682626694004e-05

6.189107012477465 2.3924920360351956 1.8000056229820596 23.14951463158939 1.2000022635837992 -0.33333333898124384 0.6022411862823146 3.9999204382961975 4.132383070348802e-05

6.1890980295280595 2.3924913813534796 1.8000059995508564 23.14954006089181 1.2000022141275348 -0.3333332261823376 0.6022416453247039 3.9999245471413394 3.953611765043972e-05

6.189102406540733 2.39249142434266 1.8000060148055126 23.149526694925676 1.2000022675744122 -0.3333332084812729 0.6022416768381005 3.999922007955087 4.039294059835356e-05

6.189117608657619 2.392490586337598 1.8000066163847257 23.149449919266967 1.2000024639986706 -0.3333333711663523 0.6022436078881563 3.999911412375207 4.534587600798236e-05

6.189102840502602 2.392490969000701 1.8000062196047388 23.149504036900957 1.2000020624986338 -0.33333348117128636 0.6022422807478914 3.9999194441748283 3.993499306268928e-05

6.1891145662175235 2.3924919547312573 1.800005658685912 23.149499775237683 1.2000024472651045 -0.33333328030253445 0.6022419849155114 3.9999150629654148 4.379286894922623e-05

6.189124949364629 2.3924930086721417 1.80000501184211 23.149475469747554 1.2000023436699256 -0.3333332699944397 0.6022413891963926 3.9999084132435287 4.5188295824655863e-05

